NAME: tsp30_18
COMMENT: 30-tsp problem (Padberg/Rinaldi)
TYPE: TSP
DIMENSION: 30
EDGE_WEIGHT_TYPE : EUC_2D
NODE_COORD_SECTION
1 14 38
2 36 8
3 34 4
4 8 2
5 26 14
6 5 31
7 11 36
8 26 28
9 13 12
10 38 5
11 30 29
12 37 1
13 5 22
14 11 19
15 6 3
16 33 15
17 33 8
18 2 32
19 39 13
20 8 31
21 7 8
22 15 20
23 9 11
24 6 34
25 13 13
26 12 14
27 2 36
28 14 30
29 4 23
30 6 14
